5 5
3 60 4 29 0 50 2 2 1 73
0 56 3 17 1 60 4 36 2 61
0 17 2 49 1 76 3 60 4 20
2 50 4 3 3 43 0 57 1 50
2 68 4 81 1 50 0 37 3 46
-1
0 2 5
0 3 5
0 2 5
0 2 5
0 2 3 4 5
-2
132 309
148 309
68 232
54 235
161 259 353 341

382 7
5 10 2 18 23
7 12 22 4 19
20 11 15 3 9
6 0 17 13 24
21 1 16 8 14
